
<<< setup


<<< generate

Version identifier: 22.1.1.0 | 2022-11-27 | 9160aff4d
Tried aggregator 1 time.
MIQCP Presolve eliminated 509 rows and 1 columns.
MIQCP Presolve modified 2346 coefficients.
Reduced MIQCP has 4999 rows, 4596 columns, and 50160 nonzeros.
Reduced MIQCP has 230 binaries, 0 generals, 0 SOSs, and 0 indicators.
Reduced MIQCP has 743 quadratic constraints.
Presolve time = 0,20 sec. (170,50 ticks)
Probing fixed 0 vars, tightened 3054 bounds.
Probing time = 0,09 sec. (93,44 ticks)
Clique table members: 1052.
MIP emphasis: balance optimality and feasibility.
MIP search method: dynamic search.
Parallel mode: deterministic, using up to 12 threads.
Root relaxation solution time = 0,08 sec. (143,13 ticks)
